58 58 90 90 90 90 90 90 58 90 90 58 58 90 90 58 90 90 90 58 90 58 90 90 58 90 90 58 58 90 58 58 90 58 58 58 90 90 58 58 58 90 58 58 90 58 58 58 90 90 58 58 90 58 90 58 90 58 58 90 58 58 58 90 58 58 58 58 90 58 58 90 90 58 90 58 58 58 58 90 90 90 90 90 90 58 90 58 90 90 90 90 90 90 58 58 90 58 58 58 